certificates/rado_a11_c156_N21.drat
-19 -21 0
d -19 -14 -21 0
14 15 -21 0
15 -20 -21 0
-15 -21 0
-21 0
15 0
-6 0
14 0
-12 0
-16 0
-17 0
-5 0
-13 0
1 0
3 0
4 0
18 0
19 0
8 0
0
